(set-logic QF_NRA)
(set-info :source |Benchmarks generated from hycomp (https://es-static.fbk.eu/tools/hycomp/). BMC instances of non-linear hybrid automata taken from: Alessandro Cimatti, Sergio Mover, Stefano Tonetta, A quantifier-free SMT encoding of non-linear hybrid automata, FMCAD 2012 and Alessandro Cimatti, Sergio Mover, Stefano Tonetta, Quantier-free encoding of invariants for Hybrid Systems, Formal Methods in System Design. This instance solves a BMC problem of depth 5 and uses the encoding obtained with quantifier elimination using qepcad encoding. Contacts: Sergio Mover (mover@fbk.eu), Stefano Tonetta (tonettas@fbk.eu), Alessandro Cimatti (cimatti@fbk.eu).|)
(set-info :smt-lib-version 2.0)
(set-info :category "industrial")
(set-info :status unsat)
;; MathSAT API call trace
;; generated on Mon Mar 19 10:38:18 2012
(declare-fun b.counter.0__AT0 () Bool)
(declare-fun b.time__AT2 () Real)
(declare-fun b.counter.2__AT0 () Bool)
(declare-fun b.counter.1__AT0 () Bool)
(declare-fun b.delta__AT2 () Real)
(declare-fun b.speed_y__AT3 () Real)
(declare-fun b.counter.1__AT1 () Bool)
(declare-fun b.EVENT.0__AT2 () Bool)
(declare-fun b.counter.2__AT1 () Bool)
(declare-fun b.y__AT2 () Real)
(declare-fun b.EVENT.1__AT2 () Bool)
(declare-fun b.counter.0__AT4 () Bool)
(declare-fun speed_loss__AT0 () Real)
(declare-fun b.counter.1__AT4 () Bool)
(declare-fun b.event_is_timed__AT5 () Bool)
(declare-fun b.speed_y__AT0 () Real)
(declare-fun b.counter.2__AT4 () Bool)
(declare-fun b.event_is_timed__AT1 () Bool)
(declare-fun b.time__AT4 () Real)
(declare-fun b.counter.0__AT2 () Bool)
(declare-fun b.counter.3__AT4 () Bool)
(declare-fun b.y__AT5 () Real)
(declare-fun b.event_is_timed__AT0 () Bool)
(declare-fun b.counter.1__AT2 () Bool)
(declare-fun b.event_is_timed__AT4 () Bool)
(declare-fun b.counter.0__AT5 () Bool)
(declare-fun b.counter.3__AT1 () Bool)
(declare-fun b.time__AT5 () Real)
(declare-fun b.counter.1__AT5 () Bool)
(declare-fun b.delta__AT0 () Real)
(declare-fun b.speed_y__AT2 () Real)
(declare-fun b.y__AT4 () Real)
(declare-fun b.delta__AT5 () Real)
(declare-fun b.y__AT1 () Real)
(declare-fun b.counter.2__AT5 () Bool)
(declare-fun b.counter.2__AT2 () Bool)
(declare-fun b.EVENT.0__AT5 () Bool)
(declare-fun b.counter.0__AT1 () Bool)
(declare-fun b.counter.3__AT5 () Bool)
(declare-fun b.counter.3__AT0 () Bool)
(declare-fun b.counter.3__AT2 () Bool)
(declare-fun b.EVENT.1__AT5 () Bool)
(declare-fun b.delta__AT4 () Real)
(declare-fun b.delta__AT1 () Real)
(declare-fun b.EVENT.0__AT4 () Bool)
(declare-fun b.event_is_timed__AT3 () Bool)
(declare-fun b.EVENT.0__AT1 () Bool)
(declare-fun b.speed_y__AT5 () Real)
(declare-fun b.EVENT.1__AT0 () Bool)
(declare-fun b.EVENT.1__AT4 () Bool)
(declare-fun b.EVENT.1__AT1 () Bool)
(declare-fun b.EVENT.0__AT0 () Bool)
(declare-fun b.time__AT1 () Real)
(declare-fun b.y__AT3 () Real)
(declare-fun b.speed_y__AT4 () Real)
(declare-fun b.counter.0__AT3 () Bool)
(declare-fun b.speed_y__AT1 () Real)
(declare-fun b.time__AT0 () Real)
(declare-fun b.event_is_timed__AT2 () Bool)
(declare-fun b.time__AT3 () Real)
(declare-fun b.counter.1__AT3 () Bool)
(declare-fun b.delta__AT3 () Real)
(declare-fun b.counter.2__AT3 () Bool)
(declare-fun b.EVENT.0__AT3 () Bool)
(declare-fun b.counter.3__AT3 () Bool)
(declare-fun b.y__AT0 () Real)
(declare-fun b.EVENT.1__AT3 () Bool)
(assert (let ((.def_897 (* 49.0 b.delta__AT5)))
(let ((.def_898 (* b.delta__AT5 .def_897)))
(let ((.def_899 (* (- 1.0) .def_898)))
(let ((.def_895 (* 10.0 b.delta__AT5)))
(let ((.def_896 (* b.speed_y__AT5 .def_895)))
(let ((.def_900 (+ .def_896 .def_899)))
(let ((.def_901 (* 10.0 b.y__AT5)))
(let ((.def_903 (+ .def_901 .def_900)))
(let ((.def_904 (<= 0.0 .def_903)))
(let ((.def_881 (<= 0.0 b.y__AT5)))
(let ((.def_905 (and .def_881 .def_904)))
(let ((.def_893 (<= 0.0 b.delta__AT5)))
(let ((.def_894 (not .def_893)))
(let ((.def_906 (or .def_894 .def_905)))
(let ((.def_878 (not b.EVENT.0__AT5)))
(let ((.def_876 (not b.EVENT.1__AT5)))
(let ((.def_890 (and .def_876 .def_878)))
(let ((.def_891 (not .def_890)))
(let ((.def_907 (or .def_891 .def_906)))
(let ((.def_607 (not b.counter.0__AT4)))
(let ((.def_885 (or b.counter.1__AT4 .def_607)))
(let ((.def_602 (not b.counter.2__AT4)))
(let ((.def_886 (or .def_602 .def_885)))
(let ((.def_887 (or b.counter.3__AT4 .def_886)))
(let ((.def_56 (<= speed_loss__AT0 (/ 1 2))))
(let ((.def_53 (<= (/ 1 10) speed_loss__AT0)))
(let ((.def_57 (and .def_53 .def_56)))
(let ((.def_882 (and .def_57 .def_881)))
(let ((.def_879 (or .def_876 .def_878)))
(let ((.def_759 (not b.counter.1__AT5)))
(let ((.def_4 (not b.counter.0__AT5)))
(let ((.def_869 (or .def_4 .def_759)))
(let ((.def_873 (or b.counter.3__AT5 .def_869)))
(let ((.def_870 (or b.counter.2__AT5 .def_869)))
(let ((.def_8 (not b.counter.2__AT5)))
(let ((.def_868 (or .def_4 .def_8)))
(let ((.def_871 (and .def_868 .def_870)))
(let ((.def_776 (not b.counter.3__AT5)))
(let ((.def_872 (or .def_776 .def_871)))
(let ((.def_874 (and .def_872 .def_873)))
(let ((.def_880 (and .def_874 .def_879)))
(let ((.def_883 (and .def_880 .def_882)))
(let ((.def_734 (<= 0.0 b.delta__AT4)))
(let ((.def_719 (not b.EVENT.0__AT4)))
(let ((.def_717 (not b.EVENT.1__AT4)))
(let ((.def_731 (and .def_717 .def_719)))
(let ((.def_732 (not .def_731)))
(let ((.def_864 (or .def_732 .def_734)))
(let ((.def_865 (or b.EVENT.1__AT4 .def_864)))
(let ((.def_798 (= b.counter.0__AT5 b.counter.0__AT4)))
(let ((.def_796 (= b.counter.1__AT5 b.counter.1__AT4)))
(let ((.def_794 (= b.counter.2__AT5 b.counter.2__AT4)))
(let ((.def_793 (= b.counter.3__AT5 b.counter.3__AT4)))
(let ((.def_795 (and .def_793 .def_794)))
(let ((.def_797 (and .def_795 .def_796)))
(let ((.def_799 (and .def_797 .def_798)))
(let ((.def_861 (or .def_732 .def_799)))
(let ((.def_862 (or b.EVENT.1__AT4 .def_861)))
(let ((.def_849 (* (- 5.0) b.speed_y__AT5)))
(let ((.def_850 (* (- 49.0) b.delta__AT4)))
(let ((.def_854 (+ .def_850 .def_849)))
(let ((.def_852 (* 5.0 b.speed_y__AT4)))
(let ((.def_855 (+ .def_852 .def_854)))
(let ((.def_856 (= .def_855 0.0 )))
(let ((.def_840 (* b.speed_y__AT4 b.delta__AT4)))
(let ((.def_841 (* 10.0 .def_840)))
(let ((.def_838 (* b.delta__AT4 b.delta__AT4)))
(let ((.def_839 (* (- 49.0) .def_838)))
(let ((.def_842 (+ .def_839 .def_841)))
(let ((.def_843 (* (- 10.0) b.y__AT5)))
(let ((.def_846 (+ .def_843 .def_842)))
(let ((.def_742 (* 10.0 b.y__AT4)))
(let ((.def_847 (+ .def_742 .def_846)))
(let ((.def_848 (= .def_847 0.0 )))
(let ((.def_857 (and .def_848 .def_856)))
(let ((.def_858 (or .def_732 .def_857)))
(let ((.def_804 (= b.y__AT4 b.y__AT5)))
(let ((.def_792 (= b.speed_y__AT4 b.speed_y__AT5)))
(let ((.def_835 (and .def_792 .def_804)))
(let ((.def_832 (= b.delta__AT4 0.0 )))
(let ((.def_833 (and .def_731 .def_832)))
(let ((.def_834 (not .def_833)))
(let ((.def_836 (or .def_834 .def_835)))
(let ((.def_837 (or b.EVENT.1__AT4 .def_836)))
(let ((.def_859 (and .def_837 .def_858)))
(let ((.def_814 (= b.time__AT4 b.time__AT5)))
(let ((.def_826 (and .def_804 .def_814)))
(let ((.def_827 (and .def_792 .def_826)))
(let ((.def_828 (and .def_799 .def_827)))
(let ((.def_829 (or .def_717 .def_828)))
(let ((.def_817 (* (- 1.0) b.time__AT5)))
(let ((.def_820 (+ b.delta__AT4 .def_817)))
(let ((.def_821 (+ b.time__AT4 .def_820)))
(let ((.def_822 (= .def_821 0.0 )))
(let ((.def_823 (or .def_732 .def_822)))
(let ((.def_824 (or b.EVENT.1__AT4 .def_823)))
(let ((.def_815 (or .def_731 .def_814)))
(let ((.def_816 (or b.EVENT.1__AT4 .def_815)))
(let ((.def_825 (and .def_816 .def_824)))
(let ((.def_830 (and .def_825 .def_829)))
(let ((.def_810 (= .def_732 b.event_is_timed__AT5)))
(let ((.def_808 (= b.event_is_timed__AT4 .def_731)))
(let ((.def_811 (and .def_808 .def_810)))
(let ((.def_800 (and .def_792 .def_799)))
(let ((.def_751 (<= 0.0 b.speed_y__AT4)))
(let ((.def_752 (not .def_751)))
(let ((.def_750 (= b.y__AT4 0.0 )))
(let ((.def_753 (and .def_750 .def_752)))
(let ((.def_801 (or .def_753 .def_800)))
(let ((.def_768 (or .def_4 b.counter.0__AT4)))
(let ((.def_767 (or b.counter.0__AT5 .def_607)))
(let ((.def_769 (and .def_767 .def_768)))
(let ((.def_770 (and .def_759 .def_769)))
(let ((.def_771 (or b.counter.1__AT4 .def_770)))
(let ((.def_595 (not b.counter.1__AT4)))
(let ((.def_766 (or b.counter.1__AT5 .def_595)))
(let ((.def_772 (and .def_766 .def_771)))
(let ((.def_784 (and .def_8 .def_772)))
(let ((.def_785 (or b.counter.2__AT4 .def_784)))
(let ((.def_779 (and .def_607 .def_759)))
(let ((.def_780 (or b.counter.1__AT4 .def_779)))
(let ((.def_781 (and .def_766 .def_780)))
(let ((.def_782 (and b.counter.2__AT5 .def_781)))
(let ((.def_783 (or .def_602 .def_782)))
(let ((.def_786 (and .def_783 .def_785)))
(let ((.def_787 (and b.counter.3__AT5 .def_786)))
(let ((.def_788 (or b.counter.3__AT4 .def_787)))
(let ((.def_773 (and b.counter.2__AT5 .def_772)))
(let ((.def_774 (or b.counter.2__AT4 .def_773)))
(let ((.def_762 (or b.counter.1__AT5 b.counter.1__AT4)))
(let ((.def_760 (and b.counter.0__AT5 .def_759)))
(let ((.def_761 (or .def_595 .def_760)))
(let ((.def_763 (and .def_761 .def_762)))
(let ((.def_764 (and .def_8 .def_763)))
(let ((.def_765 (or .def_602 .def_764)))
(let ((.def_775 (and .def_765 .def_774)))
(let ((.def_777 (and .def_775 .def_776)))
(let ((.def_617 (not b.counter.3__AT4)))
(let ((.def_778 (or .def_617 .def_777)))
(let ((.def_789 (and .def_778 .def_788)))
(let ((.def_755 (* (- 1.0) b.speed_y__AT4)))
(let ((.def_90 (* (- 1.0) speed_loss__AT0)))
(let ((.def_91 (+ 1.0 .def_90)))
(let ((.def_756 (* .def_91 .def_755)))
(let ((.def_758 (= .def_756 b.speed_y__AT5)))
(let ((.def_790 (and .def_758 .def_789)))
(let ((.def_754 (not .def_753)))
(let ((.def_791 (or .def_754 .def_790)))
(let ((.def_802 (and .def_791 .def_801)))
(let ((.def_805 (and .def_802 .def_804)))
(let ((.def_806 (or .def_731 .def_805)))
(let ((.def_807 (or b.EVENT.1__AT4 .def_806)))
(let ((.def_812 (and .def_807 .def_811)))
(let ((.def_831 (and .def_812 .def_830)))
(let ((.def_860 (and .def_831 .def_859)))
(let ((.def_863 (and .def_860 .def_862)))
(let ((.def_866 (and .def_863 .def_865)))
(let ((.def_867 (and .def_717 .def_866)))
(let ((.def_884 (and .def_867 .def_883)))
(let ((.def_888 (and .def_884 .def_887)))
(let ((.def_738 (* 49.0 b.delta__AT4)))
(let ((.def_739 (* b.delta__AT4 .def_738)))
(let ((.def_740 (* (- 1.0) .def_739)))
(let ((.def_736 (* 10.0 b.delta__AT4)))
(let ((.def_737 (* b.speed_y__AT4 .def_736)))
(let ((.def_741 (+ .def_737 .def_740)))
(let ((.def_744 (+ .def_742 .def_741)))
(let ((.def_745 (<= 0.0 .def_744)))
(let ((.def_722 (<= 0.0 b.y__AT4)))
(let ((.def_746 (and .def_722 .def_745)))
(let ((.def_735 (not .def_734)))
(let ((.def_747 (or .def_735 .def_746)))
(let ((.def_748 (or .def_732 .def_747)))
(let ((.def_442 (not b.counter.0__AT3)))
(let ((.def_726 (or b.counter.1__AT3 .def_442)))
(let ((.def_437 (not b.counter.2__AT3)))
(let ((.def_727 (or .def_437 .def_726)))
(let ((.def_728 (or b.counter.3__AT3 .def_727)))
(let ((.def_723 (and .def_57 .def_722)))
(let ((.def_720 (or .def_717 .def_719)))
(let ((.def_710 (or .def_595 .def_607)))
(let ((.def_714 (or b.counter.3__AT4 .def_710)))
(let ((.def_711 (or b.counter.2__AT4 .def_710)))
(let ((.def_709 (or .def_602 .def_607)))
(let ((.def_712 (and .def_709 .def_711)))
(let ((.def_713 (or .def_617 .def_712)))
(let ((.def_715 (and .def_713 .def_714)))
(let ((.def_721 (and .def_715 .def_720)))
(let ((.def_724 (and .def_721 .def_723)))
(let ((.def_569 (<= 0.0 b.delta__AT3)))
(let ((.def_554 (not b.EVENT.0__AT3)))
(let ((.def_552 (not b.EVENT.1__AT3)))
(let ((.def_566 (and .def_552 .def_554)))
(let ((.def_567 (not .def_566)))
(let ((.def_705 (or .def_567 .def_569)))
(let ((.def_706 (or b.EVENT.1__AT3 .def_705)))
(let ((.def_639 (= b.counter.0__AT3 b.counter.0__AT4)))
(let ((.def_637 (= b.counter.1__AT3 b.counter.1__AT4)))
(let ((.def_635 (= b.counter.2__AT3 b.counter.2__AT4)))
(let ((.def_634 (= b.counter.3__AT3 b.counter.3__AT4)))
(let ((.def_636 (and .def_634 .def_635)))
(let ((.def_638 (and .def_636 .def_637)))
(let ((.def_640 (and .def_638 .def_639)))
(let ((.def_702 (or .def_567 .def_640)))
(let ((.def_703 (or b.EVENT.1__AT3 .def_702)))
(let ((.def_690 (* (- 5.0) b.speed_y__AT4)))
(let ((.def_691 (* (- 49.0) b.delta__AT3)))
(let ((.def_695 (+ .def_691 .def_690)))
(let ((.def_693 (* 5.0 b.speed_y__AT3)))
(let ((.def_696 (+ .def_693 .def_695)))
(let ((.def_697 (= .def_696 0.0 )))
(let ((.def_681 (* b.speed_y__AT3 b.delta__AT3)))
(let ((.def_682 (* 10.0 .def_681)))
(let ((.def_679 (* b.delta__AT3 b.delta__AT3)))
(let ((.def_680 (* (- 49.0) .def_679)))
(let ((.def_683 (+ .def_680 .def_682)))
(let ((.def_684 (* (- 10.0) b.y__AT4)))
(let ((.def_687 (+ .def_684 .def_683)))
(let ((.def_577 (* 10.0 b.y__AT3)))
(let ((.def_688 (+ .def_577 .def_687)))
(let ((.def_689 (= .def_688 0.0 )))
(let ((.def_698 (and .def_689 .def_697)))
(let ((.def_699 (or .def_567 .def_698)))
(let ((.def_645 (= b.y__AT3 b.y__AT4)))
(let ((.def_633 (= b.speed_y__AT3 b.speed_y__AT4)))
(let ((.def_676 (and .def_633 .def_645)))
(let ((.def_673 (= b.delta__AT3 0.0 )))
(let ((.def_674 (and .def_566 .def_673)))
(let ((.def_675 (not .def_674)))
(let ((.def_677 (or .def_675 .def_676)))
(let ((.def_678 (or b.EVENT.1__AT3 .def_677)))
(let ((.def_700 (and .def_678 .def_699)))
(let ((.def_655 (= b.time__AT3 b.time__AT4)))
(let ((.def_667 (and .def_645 .def_655)))
(let ((.def_668 (and .def_633 .def_667)))
(let ((.def_669 (and .def_640 .def_668)))
(let ((.def_670 (or .def_552 .def_669)))
(let ((.def_658 (* (- 1.0) b.time__AT4)))
(let ((.def_661 (+ b.delta__AT3 .def_658)))
(let ((.def_662 (+ b.time__AT3 .def_661)))
(let ((.def_663 (= .def_662 0.0 )))
(let ((.def_664 (or .def_567 .def_663)))
(let ((.def_665 (or b.EVENT.1__AT3 .def_664)))
(let ((.def_656 (or .def_566 .def_655)))
(let ((.def_657 (or b.EVENT.1__AT3 .def_656)))
(let ((.def_666 (and .def_657 .def_665)))
(let ((.def_671 (and .def_666 .def_670)))
(let ((.def_651 (= .def_567 b.event_is_timed__AT4)))
(let ((.def_649 (= b.event_is_timed__AT3 .def_566)))
(let ((.def_652 (and .def_649 .def_651)))
(let ((.def_641 (and .def_633 .def_640)))
(let ((.def_586 (<= 0.0 b.speed_y__AT3)))
(let ((.def_587 (not .def_586)))
(let ((.def_585 (= b.y__AT3 0.0 )))
(let ((.def_588 (and .def_585 .def_587)))
(let ((.def_642 (or .def_588 .def_641)))
(let ((.def_608 (or b.counter.0__AT3 .def_607)))
(let ((.def_606 (or .def_442 b.counter.0__AT4)))
(let ((.def_609 (and .def_606 .def_608)))
(let ((.def_610 (and .def_595 .def_609)))
(let ((.def_611 (or b.counter.1__AT3 .def_610)))
(let ((.def_430 (not b.counter.1__AT3)))
(let ((.def_605 (or .def_430 b.counter.1__AT4)))
(let ((.def_612 (and .def_605 .def_611)))
(let ((.def_625 (and .def_602 .def_612)))
(let ((.def_626 (or b.counter.2__AT3 .def_625)))
(let ((.def_620 (and .def_442 .def_595)))
(let ((.def_621 (or b.counter.1__AT3 .def_620)))
(let ((.def_622 (and .def_605 .def_621)))
(let ((.def_623 (and b.counter.2__AT4 .def_622)))
(let ((.def_624 (or .def_437 .def_623)))
(let ((.def_627 (and .def_624 .def_626)))
(let ((.def_628 (and b.counter.3__AT4 .def_627)))
(let ((.def_629 (or b.counter.3__AT3 .def_628)))
(let ((.def_613 (and b.counter.2__AT4 .def_612)))
(let ((.def_614 (or b.counter.2__AT3 .def_613)))
(let ((.def_599 (or b.counter.1__AT3 b.counter.1__AT4)))
(let ((.def_597 (and .def_595 b.counter.0__AT4)))
(let ((.def_598 (or .def_430 .def_597)))
(let ((.def_600 (and .def_598 .def_599)))
(let ((.def_603 (and .def_600 .def_602)))
(let ((.def_604 (or .def_437 .def_603)))
(let ((.def_615 (and .def_604 .def_614)))
(let ((.def_618 (and .def_615 .def_617)))
(let ((.def_452 (not b.counter.3__AT3)))
(let ((.def_619 (or .def_452 .def_618)))
(let ((.def_630 (and .def_619 .def_629)))
(let ((.def_590 (* (- 1.0) b.speed_y__AT3)))
(let ((.def_591 (* .def_91 .def_590)))
(let ((.def_593 (= .def_591 b.speed_y__AT4)))
(let ((.def_631 (and .def_593 .def_630)))
(let ((.def_589 (not .def_588)))
(let ((.def_632 (or .def_589 .def_631)))
(let ((.def_643 (and .def_632 .def_642)))
(let ((.def_646 (and .def_643 .def_645)))
(let ((.def_647 (or .def_566 .def_646)))
(let ((.def_648 (or b.EVENT.1__AT3 .def_647)))
(let ((.def_653 (and .def_648 .def_652)))
(let ((.def_672 (and .def_653 .def_671)))
(let ((.def_701 (and .def_672 .def_700)))
(let ((.def_704 (and .def_701 .def_703)))
(let ((.def_707 (and .def_704 .def_706)))
(let ((.def_708 (and .def_552 .def_707)))
(let ((.def_725 (and .def_708 .def_724)))
(let ((.def_729 (and .def_725 .def_728)))
(let ((.def_573 (* 49.0 b.delta__AT3)))
(let ((.def_574 (* b.delta__AT3 .def_573)))
(let ((.def_575 (* (- 1.0) .def_574)))
(let ((.def_571 (* 10.0 b.delta__AT3)))
(let ((.def_572 (* b.speed_y__AT3 .def_571)))
(let ((.def_576 (+ .def_572 .def_575)))
(let ((.def_579 (+ .def_577 .def_576)))
(let ((.def_580 (<= 0.0 .def_579)))
(let ((.def_557 (<= 0.0 b.y__AT3)))
(let ((.def_581 (and .def_557 .def_580)))
(let ((.def_570 (not .def_569)))
(let ((.def_582 (or .def_570 .def_581)))
(let ((.def_583 (or .def_567 .def_582)))
(let ((.def_277 (not b.counter.0__AT2)))
(let ((.def_561 (or b.counter.1__AT2 .def_277)))
(let ((.def_272 (not b.counter.2__AT2)))
(let ((.def_562 (or .def_272 .def_561)))
(let ((.def_563 (or b.counter.3__AT2 .def_562)))
(let ((.def_558 (and .def_57 .def_557)))
(let ((.def_555 (or .def_552 .def_554)))
(let ((.def_545 (or .def_430 .def_442)))
(let ((.def_549 (or b.counter.3__AT3 .def_545)))
(let ((.def_546 (or b.counter.2__AT3 .def_545)))
(let ((.def_544 (or .def_437 .def_442)))
(let ((.def_547 (and .def_544 .def_546)))
(let ((.def_548 (or .def_452 .def_547)))
(let ((.def_550 (and .def_548 .def_549)))
(let ((.def_556 (and .def_550 .def_555)))
(let ((.def_559 (and .def_556 .def_558)))
(let ((.def_404 (<= 0.0 b.delta__AT2)))
(let ((.def_389 (not b.EVENT.0__AT2)))
(let ((.def_387 (not b.EVENT.1__AT2)))
(let ((.def_401 (and .def_387 .def_389)))
(let ((.def_402 (not .def_401)))
(let ((.def_540 (or .def_402 .def_404)))
(let ((.def_541 (or b.EVENT.1__AT2 .def_540)))
(let ((.def_474 (= b.counter.0__AT2 b.counter.0__AT3)))
(let ((.def_472 (= b.counter.1__AT2 b.counter.1__AT3)))
(let ((.def_470 (= b.counter.2__AT2 b.counter.2__AT3)))
(let ((.def_469 (= b.counter.3__AT2 b.counter.3__AT3)))
(let ((.def_471 (and .def_469 .def_470)))
(let ((.def_473 (and .def_471 .def_472)))
(let ((.def_475 (and .def_473 .def_474)))
(let ((.def_537 (or .def_402 .def_475)))
(let ((.def_538 (or b.EVENT.1__AT2 .def_537)))
(let ((.def_525 (* (- 5.0) b.speed_y__AT3)))
(let ((.def_526 (* (- 49.0) b.delta__AT2)))
(let ((.def_530 (+ .def_526 .def_525)))
(let ((.def_528 (* 5.0 b.speed_y__AT2)))
(let ((.def_531 (+ .def_528 .def_530)))
(let ((.def_532 (= .def_531 0.0 )))
(let ((.def_516 (* b.speed_y__AT2 b.delta__AT2)))
(let ((.def_517 (* 10.0 .def_516)))
(let ((.def_514 (* b.delta__AT2 b.delta__AT2)))
(let ((.def_515 (* (- 49.0) .def_514)))
(let ((.def_518 (+ .def_515 .def_517)))
(let ((.def_519 (* (- 10.0) b.y__AT3)))
(let ((.def_522 (+ .def_519 .def_518)))
(let ((.def_412 (* 10.0 b.y__AT2)))
(let ((.def_523 (+ .def_412 .def_522)))
(let ((.def_524 (= .def_523 0.0 )))
(let ((.def_533 (and .def_524 .def_532)))
(let ((.def_534 (or .def_402 .def_533)))
(let ((.def_480 (= b.y__AT2 b.y__AT3)))
(let ((.def_468 (= b.speed_y__AT2 b.speed_y__AT3)))
(let ((.def_511 (and .def_468 .def_480)))
(let ((.def_508 (= b.delta__AT2 0.0 )))
(let ((.def_509 (and .def_401 .def_508)))
(let ((.def_510 (not .def_509)))
(let ((.def_512 (or .def_510 .def_511)))
(let ((.def_513 (or b.EVENT.1__AT2 .def_512)))
(let ((.def_535 (and .def_513 .def_534)))
(let ((.def_490 (= b.time__AT2 b.time__AT3)))
(let ((.def_502 (and .def_480 .def_490)))
(let ((.def_503 (and .def_468 .def_502)))
(let ((.def_504 (and .def_475 .def_503)))
(let ((.def_505 (or .def_387 .def_504)))
(let ((.def_493 (* (- 1.0) b.time__AT3)))
(let ((.def_496 (+ b.delta__AT2 .def_493)))
(let ((.def_497 (+ b.time__AT2 .def_496)))
(let ((.def_498 (= .def_497 0.0 )))
(let ((.def_499 (or .def_402 .def_498)))
(let ((.def_500 (or b.EVENT.1__AT2 .def_499)))
(let ((.def_491 (or .def_401 .def_490)))
(let ((.def_492 (or b.EVENT.1__AT2 .def_491)))
(let ((.def_501 (and .def_492 .def_500)))
(let ((.def_506 (and .def_501 .def_505)))
(let ((.def_486 (= .def_402 b.event_is_timed__AT3)))
(let ((.def_484 (= b.event_is_timed__AT2 .def_401)))
(let ((.def_487 (and .def_484 .def_486)))
(let ((.def_476 (and .def_468 .def_475)))
(let ((.def_421 (<= 0.0 b.speed_y__AT2)))
(let ((.def_422 (not .def_421)))
(let ((.def_420 (= b.y__AT2 0.0 )))
(let ((.def_423 (and .def_420 .def_422)))
(let ((.def_477 (or .def_423 .def_476)))
(let ((.def_443 (or b.counter.0__AT2 .def_442)))
(let ((.def_441 (or .def_277 b.counter.0__AT3)))
(let ((.def_444 (and .def_441 .def_443)))
(let ((.def_445 (and .def_430 .def_444)))
(let ((.def_446 (or b.counter.1__AT2 .def_445)))
(let ((.def_265 (not b.counter.1__AT2)))
(let ((.def_440 (or .def_265 b.counter.1__AT3)))
(let ((.def_447 (and .def_440 .def_446)))
(let ((.def_460 (and .def_437 .def_447)))
(let ((.def_461 (or b.counter.2__AT2 .def_460)))
(let ((.def_455 (and .def_277 .def_430)))
(let ((.def_456 (or b.counter.1__AT2 .def_455)))
(let ((.def_457 (and .def_440 .def_456)))
(let ((.def_458 (and b.counter.2__AT3 .def_457)))
(let ((.def_459 (or .def_272 .def_458)))
(let ((.def_462 (and .def_459 .def_461)))
(let ((.def_463 (and b.counter.3__AT3 .def_462)))
(let ((.def_464 (or b.counter.3__AT2 .def_463)))
(let ((.def_448 (and b.counter.2__AT3 .def_447)))
(let ((.def_449 (or b.counter.2__AT2 .def_448)))
(let ((.def_434 (or b.counter.1__AT2 b.counter.1__AT3)))
(let ((.def_432 (and .def_430 b.counter.0__AT3)))
(let ((.def_433 (or .def_265 .def_432)))
(let ((.def_435 (and .def_433 .def_434)))
(let ((.def_438 (and .def_435 .def_437)))
(let ((.def_439 (or .def_272 .def_438)))
(let ((.def_450 (and .def_439 .def_449)))
(let ((.def_453 (and .def_450 .def_452)))
(let ((.def_287 (not b.counter.3__AT2)))
(let ((.def_454 (or .def_287 .def_453)))
(let ((.def_465 (and .def_454 .def_464)))
(let ((.def_425 (* (- 1.0) b.speed_y__AT2)))
(let ((.def_426 (* .def_91 .def_425)))
(let ((.def_428 (= .def_426 b.speed_y__AT3)))
(let ((.def_466 (and .def_428 .def_465)))
(let ((.def_424 (not .def_423)))
(let ((.def_467 (or .def_424 .def_466)))
(let ((.def_478 (and .def_467 .def_477)))
(let ((.def_481 (and .def_478 .def_480)))
(let ((.def_482 (or .def_401 .def_481)))
(let ((.def_483 (or b.EVENT.1__AT2 .def_482)))
(let ((.def_488 (and .def_483 .def_487)))
(let ((.def_507 (and .def_488 .def_506)))
(let ((.def_536 (and .def_507 .def_535)))
(let ((.def_539 (and .def_536 .def_538)))
(let ((.def_542 (and .def_539 .def_541)))
(let ((.def_543 (and .def_387 .def_542)))
(let ((.def_560 (and .def_543 .def_559)))
(let ((.def_564 (and .def_560 .def_563)))
(let ((.def_408 (* 49.0 b.delta__AT2)))
(let ((.def_409 (* b.delta__AT2 .def_408)))
(let ((.def_410 (* (- 1.0) .def_409)))
(let ((.def_406 (* 10.0 b.delta__AT2)))
(let ((.def_407 (* b.speed_y__AT2 .def_406)))
(let ((.def_411 (+ .def_407 .def_410)))
(let ((.def_414 (+ .def_412 .def_411)))
(let ((.def_415 (<= 0.0 .def_414)))
(let ((.def_392 (<= 0.0 b.y__AT2)))
(let ((.def_416 (and .def_392 .def_415)))
(let ((.def_405 (not .def_404)))
(let ((.def_417 (or .def_405 .def_416)))
(let ((.def_418 (or .def_402 .def_417)))
(let ((.def_108 (not b.counter.0__AT1)))
(let ((.def_396 (or b.counter.1__AT1 .def_108)))
(let ((.def_103 (not b.counter.2__AT1)))
(let ((.def_397 (or .def_103 .def_396)))
(let ((.def_398 (or b.counter.3__AT1 .def_397)))
(let ((.def_393 (and .def_57 .def_392)))
(let ((.def_390 (or .def_387 .def_389)))
(let ((.def_380 (or .def_265 .def_277)))
(let ((.def_384 (or b.counter.3__AT2 .def_380)))
(let ((.def_381 (or b.counter.2__AT2 .def_380)))
(let ((.def_379 (or .def_272 .def_277)))
(let ((.def_382 (and .def_379 .def_381)))
(let ((.def_383 (or .def_287 .def_382)))
(let ((.def_385 (and .def_383 .def_384)))
(let ((.def_391 (and .def_385 .def_390)))
(let ((.def_394 (and .def_391 .def_393)))
(let ((.def_239 (<= 0.0 b.delta__AT1)))
(let ((.def_224 (not b.EVENT.0__AT1)))
(let ((.def_222 (not b.EVENT.1__AT1)))
(let ((.def_236 (and .def_222 .def_224)))
(let ((.def_237 (not .def_236)))
(let ((.def_375 (or .def_237 .def_239)))
(let ((.def_376 (or b.EVENT.1__AT1 .def_375)))
(let ((.def_309 (= b.counter.0__AT1 b.counter.0__AT2)))
(let ((.def_307 (= b.counter.1__AT1 b.counter.1__AT2)))
(let ((.def_305 (= b.counter.2__AT1 b.counter.2__AT2)))
(let ((.def_304 (= b.counter.3__AT1 b.counter.3__AT2)))
(let ((.def_306 (and .def_304 .def_305)))
(let ((.def_308 (and .def_306 .def_307)))
(let ((.def_310 (and .def_308 .def_309)))
(let ((.def_372 (or .def_237 .def_310)))
(let ((.def_373 (or b.EVENT.1__AT1 .def_372)))
(let ((.def_360 (* (- 5.0) b.speed_y__AT2)))
(let ((.def_361 (* (- 49.0) b.delta__AT1)))
(let ((.def_365 (+ .def_361 .def_360)))
(let ((.def_363 (* 5.0 b.speed_y__AT1)))
(let ((.def_366 (+ .def_363 .def_365)))
(let ((.def_367 (= .def_366 0.0 )))
(let ((.def_351 (* b.speed_y__AT1 b.delta__AT1)))
(let ((.def_352 (* 10.0 .def_351)))
(let ((.def_349 (* b.delta__AT1 b.delta__AT1)))
(let ((.def_350 (* (- 49.0) .def_349)))
(let ((.def_353 (+ .def_350 .def_352)))
(let ((.def_354 (* (- 10.0) b.y__AT2)))
(let ((.def_357 (+ .def_354 .def_353)))
(let ((.def_247 (* 10.0 b.y__AT1)))
(let ((.def_358 (+ .def_247 .def_357)))
(let ((.def_359 (= .def_358 0.0 )))
(let ((.def_368 (and .def_359 .def_367)))
(let ((.def_369 (or .def_237 .def_368)))
(let ((.def_315 (= b.y__AT1 b.y__AT2)))
(let ((.def_303 (= b.speed_y__AT1 b.speed_y__AT2)))
(let ((.def_346 (and .def_303 .def_315)))
(let ((.def_343 (= b.delta__AT1 0.0 )))
(let ((.def_344 (and .def_236 .def_343)))
(let ((.def_345 (not .def_344)))
(let ((.def_347 (or .def_345 .def_346)))
(let ((.def_348 (or b.EVENT.1__AT1 .def_347)))
(let ((.def_370 (and .def_348 .def_369)))
(let ((.def_325 (= b.time__AT1 b.time__AT2)))
(let ((.def_337 (and .def_315 .def_325)))
(let ((.def_338 (and .def_303 .def_337)))
(let ((.def_339 (and .def_310 .def_338)))
(let ((.def_340 (or .def_222 .def_339)))
(let ((.def_328 (* (- 1.0) b.time__AT2)))
(let ((.def_331 (+ b.delta__AT1 .def_328)))
(let ((.def_332 (+ b.time__AT1 .def_331)))
(let ((.def_333 (= .def_332 0.0 )))
(let ((.def_334 (or .def_237 .def_333)))
(let ((.def_335 (or b.EVENT.1__AT1 .def_334)))
(let ((.def_326 (or .def_236 .def_325)))
(let ((.def_327 (or b.EVENT.1__AT1 .def_326)))
(let ((.def_336 (and .def_327 .def_335)))
(let ((.def_341 (and .def_336 .def_340)))
(let ((.def_321 (= .def_237 b.event_is_timed__AT2)))
(let ((.def_319 (= b.event_is_timed__AT1 .def_236)))
(let ((.def_322 (and .def_319 .def_321)))
(let ((.def_311 (and .def_303 .def_310)))
(let ((.def_256 (<= 0.0 b.speed_y__AT1)))
(let ((.def_257 (not .def_256)))
(let ((.def_255 (= b.y__AT1 0.0 )))
(let ((.def_258 (and .def_255 .def_257)))
(let ((.def_312 (or .def_258 .def_311)))
(let ((.def_278 (or b.counter.0__AT1 .def_277)))
(let ((.def_276 (or .def_108 b.counter.0__AT2)))
(let ((.def_279 (and .def_276 .def_278)))
(let ((.def_280 (and .def_265 .def_279)))
(let ((.def_281 (or b.counter.1__AT1 .def_280)))
(let ((.def_96 (not b.counter.1__AT1)))
(let ((.def_275 (or .def_96 b.counter.1__AT2)))
(let ((.def_282 (and .def_275 .def_281)))
(let ((.def_295 (and .def_272 .def_282)))
(let ((.def_296 (or b.counter.2__AT1 .def_295)))
(let ((.def_290 (and .def_108 .def_265)))
(let ((.def_291 (or b.counter.1__AT1 .def_290)))
(let ((.def_292 (and .def_275 .def_291)))
(let ((.def_293 (and b.counter.2__AT2 .def_292)))
(let ((.def_294 (or .def_103 .def_293)))
(let ((.def_297 (and .def_294 .def_296)))
(let ((.def_298 (and b.counter.3__AT2 .def_297)))
(let ((.def_299 (or b.counter.3__AT1 .def_298)))
(let ((.def_283 (and b.counter.2__AT2 .def_282)))
(let ((.def_284 (or b.counter.2__AT1 .def_283)))
(let ((.def_269 (or b.counter.1__AT1 b.counter.1__AT2)))
(let ((.def_267 (and .def_265 b.counter.0__AT2)))
(let ((.def_268 (or .def_96 .def_267)))
(let ((.def_270 (and .def_268 .def_269)))
(let ((.def_273 (and .def_270 .def_272)))
(let ((.def_274 (or .def_103 .def_273)))
(let ((.def_285 (and .def_274 .def_284)))
(let ((.def_288 (and .def_285 .def_287)))
(let ((.def_118 (not b.counter.3__AT1)))
(let ((.def_289 (or .def_118 .def_288)))
(let ((.def_300 (and .def_289 .def_299)))
(let ((.def_260 (* (- 1.0) b.speed_y__AT1)))
(let ((.def_261 (* .def_91 .def_260)))
(let ((.def_263 (= .def_261 b.speed_y__AT2)))
(let ((.def_301 (and .def_263 .def_300)))
(let ((.def_259 (not .def_258)))
(let ((.def_302 (or .def_259 .def_301)))
(let ((.def_313 (and .def_302 .def_312)))
(let ((.def_316 (and .def_313 .def_315)))
(let ((.def_317 (or .def_236 .def_316)))
(let ((.def_318 (or b.EVENT.1__AT1 .def_317)))
(let ((.def_323 (and .def_318 .def_322)))
(let ((.def_342 (and .def_323 .def_341)))
(let ((.def_371 (and .def_342 .def_370)))
(let ((.def_374 (and .def_371 .def_373)))
(let ((.def_377 (and .def_374 .def_376)))
(let ((.def_378 (and .def_222 .def_377)))
(let ((.def_395 (and .def_378 .def_394)))
(let ((.def_399 (and .def_395 .def_398)))
(let ((.def_243 (* 49.0 b.delta__AT1)))
(let ((.def_244 (* b.delta__AT1 .def_243)))
(let ((.def_245 (* (- 1.0) .def_244)))
(let ((.def_241 (* 10.0 b.delta__AT1)))
(let ((.def_242 (* b.speed_y__AT1 .def_241)))
(let ((.def_246 (+ .def_242 .def_245)))
(let ((.def_249 (+ .def_247 .def_246)))
(let ((.def_250 (<= 0.0 .def_249)))
(let ((.def_227 (<= 0.0 b.y__AT1)))
(let ((.def_251 (and .def_227 .def_250)))
(let ((.def_240 (not .def_239)))
(let ((.def_252 (or .def_240 .def_251)))
(let ((.def_253 (or .def_237 .def_252)))
(let ((.def_28 (not b.counter.0__AT0)))
(let ((.def_231 (or b.counter.1__AT0 .def_28)))
(let ((.def_31 (not b.counter.2__AT0)))
(let ((.def_232 (or .def_31 .def_231)))
(let ((.def_233 (or b.counter.3__AT0 .def_232)))
(let ((.def_228 (and .def_57 .def_227)))
(let ((.def_225 (or .def_222 .def_224)))
(let ((.def_215 (or .def_96 .def_108)))
(let ((.def_219 (or b.counter.3__AT1 .def_215)))
(let ((.def_216 (or b.counter.2__AT1 .def_215)))
(let ((.def_214 (or .def_103 .def_108)))
(let ((.def_217 (and .def_214 .def_216)))
(let ((.def_218 (or .def_118 .def_217)))
(let ((.def_220 (and .def_218 .def_219)))
(let ((.def_226 (and .def_220 .def_225)))
(let ((.def_229 (and .def_226 .def_228)))
(let ((.def_66 (<= 0.0 b.delta__AT0)))
(let ((.def_47 (not b.EVENT.0__AT0)))
(let ((.def_45 (not b.EVENT.1__AT0)))
(let ((.def_63 (and .def_45 .def_47)))
(let ((.def_64 (not .def_63)))
(let ((.def_210 (or .def_64 .def_66)))
(let ((.def_211 (or b.EVENT.1__AT0 .def_210)))
(let ((.def_140 (= b.counter.0__AT0 b.counter.0__AT1)))
(let ((.def_138 (= b.counter.1__AT0 b.counter.1__AT1)))
(let ((.def_136 (= b.counter.2__AT0 b.counter.2__AT1)))
(let ((.def_135 (= b.counter.3__AT0 b.counter.3__AT1)))
(let ((.def_137 (and .def_135 .def_136)))
(let ((.def_139 (and .def_137 .def_138)))
(let ((.def_141 (and .def_139 .def_140)))
(let ((.def_207 (or .def_64 .def_141)))
(let ((.def_208 (or b.EVENT.1__AT0 .def_207)))
(let ((.def_195 (* (- 5.0) b.speed_y__AT1)))
(let ((.def_196 (* (- 49.0) b.delta__AT0)))
(let ((.def_200 (+ .def_196 .def_195)))
(let ((.def_198 (* 5.0 b.speed_y__AT0)))
(let ((.def_201 (+ .def_198 .def_200)))
(let ((.def_202 (= .def_201 0.0 )))
(let ((.def_183 (* b.speed_y__AT0 b.delta__AT0)))
(let ((.def_184 (* 10.0 .def_183)))
(let ((.def_180 (* b.delta__AT0 b.delta__AT0)))
(let ((.def_182 (* (- 49.0) .def_180)))
(let ((.def_185 (+ .def_182 .def_184)))
(let ((.def_187 (* (- 10.0) b.y__AT1)))
(let ((.def_190 (+ .def_187 .def_185)))
(let ((.def_76 (* 10.0 b.y__AT0)))
(let ((.def_191 (+ .def_76 .def_190)))
(let ((.def_192 (= .def_191 0.0 )))
(let ((.def_203 (and .def_192 .def_202)))
(let ((.def_204 (or .def_64 .def_203)))
(let ((.def_146 (= b.y__AT0 b.y__AT1)))
(let ((.def_134 (= b.speed_y__AT0 b.speed_y__AT1)))
(let ((.def_177 (and .def_134 .def_146)))
(let ((.def_174 (= b.delta__AT0 0.0 )))
(let ((.def_175 (and .def_63 .def_174)))
(let ((.def_176 (not .def_175)))
(let ((.def_178 (or .def_176 .def_177)))
(let ((.def_179 (or b.EVENT.1__AT0 .def_178)))
(let ((.def_205 (and .def_179 .def_204)))
(let ((.def_156 (= b.time__AT0 b.time__AT1)))
(let ((.def_168 (and .def_146 .def_156)))
(let ((.def_169 (and .def_134 .def_168)))
(let ((.def_170 (and .def_141 .def_169)))
(let ((.def_171 (or .def_45 .def_170)))
(let ((.def_159 (* (- 1.0) b.time__AT1)))
(let ((.def_162 (+ b.delta__AT0 .def_159)))
(let ((.def_163 (+ b.time__AT0 .def_162)))
(let ((.def_164 (= .def_163 0.0 )))
(let ((.def_165 (or .def_64 .def_164)))
(let ((.def_166 (or b.EVENT.1__AT0 .def_165)))
(let ((.def_157 (or .def_63 .def_156)))
(let ((.def_158 (or b.EVENT.1__AT0 .def_157)))
(let ((.def_167 (and .def_158 .def_166)))
(let ((.def_172 (and .def_167 .def_171)))
(let ((.def_152 (= .def_64 b.event_is_timed__AT1)))
(let ((.def_150 (= b.event_is_timed__AT0 .def_63)))
(let ((.def_153 (and .def_150 .def_152)))
(let ((.def_142 (and .def_134 .def_141)))
(let ((.def_85 (<= 0.0 b.speed_y__AT0)))
(let ((.def_86 (not .def_85)))
(let ((.def_84 (= b.y__AT0 0.0 )))
(let ((.def_87 (and .def_84 .def_86)))
(let ((.def_143 (or .def_87 .def_142)))
(let ((.def_109 (or b.counter.0__AT0 .def_108)))
(let ((.def_107 (or .def_28 b.counter.0__AT1)))
(let ((.def_110 (and .def_107 .def_109)))
(let ((.def_111 (and .def_96 .def_110)))
(let ((.def_112 (or b.counter.1__AT0 .def_111)))
(let ((.def_26 (not b.counter.1__AT0)))
(let ((.def_106 (or .def_26 b.counter.1__AT1)))
(let ((.def_113 (and .def_106 .def_112)))
(let ((.def_126 (and .def_103 .def_113)))
(let ((.def_127 (or b.counter.2__AT0 .def_126)))
(let ((.def_121 (and .def_28 .def_96)))
(let ((.def_122 (or b.counter.1__AT0 .def_121)))
(let ((.def_123 (and .def_106 .def_122)))
(let ((.def_124 (and b.counter.2__AT1 .def_123)))
(let ((.def_125 (or .def_31 .def_124)))
(let ((.def_128 (and .def_125 .def_127)))
(let ((.def_129 (and b.counter.3__AT1 .def_128)))
(let ((.def_130 (or b.counter.3__AT0 .def_129)))
(let ((.def_114 (and b.counter.2__AT1 .def_113)))
(let ((.def_115 (or b.counter.2__AT0 .def_114)))
(let ((.def_100 (or b.counter.1__AT0 b.counter.1__AT1)))
(let ((.def_98 (and .def_96 b.counter.0__AT1)))
(let ((.def_99 (or .def_26 .def_98)))
(let ((.def_101 (and .def_99 .def_100)))
(let ((.def_104 (and .def_101 .def_103)))
(let ((.def_105 (or .def_31 .def_104)))
(let ((.def_116 (and .def_105 .def_115)))
(let ((.def_119 (and .def_116 .def_118)))
(let ((.def_34 (not b.counter.3__AT0)))
(let ((.def_120 (or .def_34 .def_119)))
(let ((.def_131 (and .def_120 .def_130)))
(let ((.def_89 (* (- 1.0) b.speed_y__AT0)))
(let ((.def_92 (* .def_89 .def_91)))
(let ((.def_94 (= .def_92 b.speed_y__AT1)))
(let ((.def_132 (and .def_94 .def_131)))
(let ((.def_88 (not .def_87)))
(let ((.def_133 (or .def_88 .def_132)))
(let ((.def_144 (and .def_133 .def_143)))
(let ((.def_147 (and .def_144 .def_146)))
(let ((.def_148 (or .def_63 .def_147)))
(let ((.def_149 (or b.EVENT.1__AT0 .def_148)))
(let ((.def_154 (and .def_149 .def_153)))
(let ((.def_173 (and .def_154 .def_172)))
(let ((.def_206 (and .def_173 .def_205)))
(let ((.def_209 (and .def_206 .def_208)))
(let ((.def_212 (and .def_209 .def_211)))
(let ((.def_213 (and .def_45 .def_212)))
(let ((.def_230 (and .def_213 .def_229)))
(let ((.def_234 (and .def_230 .def_233)))
(let ((.def_71 (* 49.0 b.delta__AT0)))
(let ((.def_72 (* b.delta__AT0 .def_71)))
(let ((.def_74 (* (- 1.0) .def_72)))
(let ((.def_68 (* 10.0 b.delta__AT0)))
(let ((.def_69 (* b.speed_y__AT0 .def_68)))
(let ((.def_75 (+ .def_69 .def_74)))
(let ((.def_78 (+ .def_76 .def_75)))
(let ((.def_79 (<= 0.0 .def_78)))
(let ((.def_58 (<= 0.0 b.y__AT0)))
(let ((.def_80 (and .def_58 .def_79)))
(let ((.def_67 (not .def_66)))
(let ((.def_81 (or .def_67 .def_80)))
(let ((.def_82 (or .def_64 .def_81)))
(let ((.def_59 (and .def_57 .def_58)))
(let ((.def_48 (or .def_45 .def_47)))
(let ((.def_38 (or .def_26 .def_28)))
(let ((.def_42 (or b.counter.3__AT0 .def_38)))
(let ((.def_39 (or b.counter.2__AT0 .def_38)))
(let ((.def_37 (or .def_28 .def_31)))
(let ((.def_40 (and .def_37 .def_39)))
(let ((.def_41 (or .def_34 .def_40)))
(let ((.def_43 (and .def_41 .def_42)))
(let ((.def_49 (and .def_43 .def_48)))
(let ((.def_60 (and .def_49 .def_59)))
(let ((.def_29 (and .def_26 .def_28)))
(let ((.def_32 (and .def_29 .def_31)))
(let ((.def_35 (and .def_32 .def_34)))
(let ((.def_23 (= b.speed_y__AT0 0.0 )))
(let ((.def_20 (= b.y__AT0 10.0 )))
(let ((.def_15 (= b.time__AT0 0.0 )))
(let ((.def_17 (and .def_15 b.event_is_timed__AT0)))
(let ((.def_21 (and .def_17 .def_20)))
(let ((.def_24 (and .def_21 .def_23)))
(let ((.def_36 (and .def_24 .def_35)))
(let ((.def_61 (and .def_36 .def_60)))
(let ((.def_6 (or .def_4 b.counter.1__AT5)))
(let ((.def_9 (or .def_6 .def_8)))
(let ((.def_11 (or .def_9 b.counter.3__AT5)))
(let ((.def_12 (not .def_11)))
(let ((.def_62 (and .def_12 .def_61)))
(let ((.def_83 (and .def_62 .def_82)))
(let ((.def_235 (and .def_83 .def_234)))
(let ((.def_254 (and .def_235 .def_253)))
(let ((.def_400 (and .def_254 .def_399)))
(let ((.def_419 (and .def_400 .def_418)))
(let ((.def_565 (and .def_419 .def_564)))
(let ((.def_584 (and .def_565 .def_583)))
(let ((.def_730 (and .def_584 .def_729)))
(let ((.def_749 (and .def_730 .def_748)))
(let ((.def_889 (and .def_749 .def_888)))
(let ((.def_908 (and .def_889 .def_907)))
.def_908))))))))))))))))))))))))))))))))))))))))))))))))))))))))))))))))))))))))))))))))))))))))))))))))))))))))))))))))))))))))))))))))))))))))))))))))))))))))))))))))))))))))))))))))))))))))))))))))))))))))))))))))))))))))))))))))))))))))))))))))))))))))))))))))))))))))))))))))))))))))))))))))))))))))))))))))))))))))))))))))))))))))))))))))))))))))))))))))))))))))))))))))))))))))))))))))))))))))))))))))))))))))))))))))))))))))))))))))))))))))))))))))))))))))))))))))))))))))))))))))))))))))))))))))))))))))))))))))))))))))))))))))))))))))))))))))))))))))))))))))))))))))))))))))))))))))))))))))))))))))))))))))))))))))))))))))))))))))))))))))))))))))))))))))))))))))))))))))))))))))))))))))))))))))))))))))))))))))))))))))))))))))))))))))))))))))))))))))))))))))))))))))))))))))))))))))))))))))
(check-sat)
(exit)
